&CONTROL
    calculation='scf',
    tstress=.true.,         ! compute stress
    tprnfor=.true.,         ! compute forces
    outdir='outputs',       ! output directory
    prefix='mos2-bulk_',
    pseudo_dir='pseudo',    ! pseudo potential directory
    verbosity='debug',      ! verbosity level
/

&SYSTEM
    ibrav=4,                ! form of bravais lattice cell ( hexagonal and trigonal = 4 )
    celldm(1) = 3.190d0,    ! parameter a
    celldm(3) = 4.6642d0,   ! parameter c/a
    nat=6,                  ! number of atoms in the unit cell
    ntyp=2,                 ! number of type of atoms
    ecutwfc=49,             ! cutoff energy for the wave function, Mo >= 49, S >= 39
    ecutrho=306,            ! cutoff energy for the density, Mo >= 306, S >= 181
    input_dft='lda',        ! dft method
    occupations='smearing', ! prevents discontinuity
    smearing='gauss',          ! smearing method: gaussian or marzari-vanderbilt cold (mv)
    degauss=0.005d0,        ! smearing parameter: FWHM
/

&ELECTRONS
    conv_thr=1d-06,             ! convergence threshold
    mixing_beta=0.7d0,          ! mixing old and new density during SCF loop
    diagonalization='david',    ! diagonalization method
/

ATOMIC_SPECIES
    Mo  95.940000d0 Mo.pbesol-spn-kjpaw_psl.1.0.0.UPF     ! atom mass potential_file
    S   32.065000d0 S.pbe-n-kjpaw_psl.1.0.0.UPF  

ATOMIC_POSITIONS {crystal}                      ! atomic positions inside the unit cell
    Mo  0.3333333333d0  0.6666666666d0  0.25d0
    Mo  0.6666666667d0  0.3333333333d0  0.75d0
    S   0.3333333333d0  0.6666666666d0  0.8552d0
    S   0.3333333333d0  0.6666666666d0  0.6448d0
    S   0.6666666667d0  0.3333333333d0  0.3552d0
    S   0.6666666667d0  0.3333333333d0  0.1448d0

K_POINTS {automatic}    ! reciprocal grid, automatically chosen
    4 4 12 0 0 0
       

