  phonons of MoS2 at X
  &inputph
    tr2_ph=1.0d-12,
    niter_ph = 70,
    prefix='mos2-bulk_',
    alpha_mix(1) = 0.4,                 ! 0.1, default 0.7
    ldisp=.false.,
    epsil=.true.,
    fildyn='outputs/mos2-X.dyn',
    outdir='outputs',
    verbosity='debug'
  /
  0.0 0.0 0.0
