ATOMIC_SPECIES
Mo     95.96    Mo_ONCV_PBEsol-1.0.upf
S      32.065   s_pbesol_v1.4.uspp.F.UPF

ATOMIC_POSITIONS crystal
Mo           0.3333333300       0.6666666700       0.2500000000 
Mo           0.6666666700       0.3333333300       0.7500000000 
S            0.6666666700       0.3333333300       0.3551740000 
S            0.3333333300       0.6666666700       0.8551740000 
S            0.6666666700       0.3333333300       0.1448260000 
S            0.3333333300       0.6666666700       0.6448260000 

K_POINTS {automatic}
    13 13 4 0 0 0

CELL_PARAMETERS angstrom
      3.1903157000       0.0000000000       0.0000000000
     -1.5951578500       2.7628944423       0.0000000000
      0.0000000000       0.0000000000      14.8790040000
