 &input
   fildyn='<phonon input>', 
   zasr='simple', 
   flfrc='<output>'
 /
